Set parameter WLSAccessID
Set parameter WLSSecret
Set parameter LicenseID to value 2604445
Academic license 2604445 - for non-commercial use only - registered to an___@um.edu.mt
Set parameter Seed to value 23
Set parameter TimeLimit to value 14400
Gurobi Optimizer version 12.0.2 build v12.0.2rc0 (linux64 - "Ubuntu 22.04.5 LTS")

CPU model: Intel(R) Core(TM) i5-10400 CPU @ 2.90GHz, instruction set [SSE2|AVX|AVX2]
Thread count: 6 physical cores, 12 logical processors, using up to 12 threads

Non-default parameters:
TimeLimit  14400
Seed  23

Academic license 2604445 - for non-commercial use only - registered to an___@um.edu.mt
Optimize a model with 1239542 rows, 27059 columns and 2551217 nonzeros
Model fingerprint: 0xa550f451
Variable types: 0 continuous, 27059 integer (20767 binary)
Coefficient statistics:
  Matrix range     [1e+00, 7e+01]
  Objective range  [8e-08, 2e-02]
  Bounds range     [1e+00, 2e+02]
  RHS range        [1e+00, 7e+01]
Presolve removed 14107 rows and 10549 columns
Presolve time: 4.31s
Presolved: 1225435 rows, 16510 columns, 2500935 nonzeros
Variable types: 0 continuous, 16510 integer (10985 binary)
Deterministic concurrent LP optimizer: primal and dual simplex
Showing primal log only...

Concurrent spin time: 0.00s

Solved with dual simplex

Root simplex log...

Iteration    Objective       Primal Inf.    Dual Inf.      Time
     100    1.7698565e-03   0.000000e+00   0.000000e+00     12s

Use crossover to convert LP symmetric solution to basic solution...

Root crossover log...

       0 DPushes remaining with DInf 0.0000000e+00                13s

    2878 PPushes remaining with PInf 0.0000000e+00                13s
       0 PPushes remaining with PInf 0.0000000e+00                14s

  Push phase complete: Pinf 0.0000000e+00, Dinf 5.1547848e-05     14s


Root simplex log...

Iteration    Objective       Primal Inf.    Dual Inf.      Time
    3088    1.7698565e-03   0.000000e+00   5.154785e-05     14s
    3090    1.7698565e-03   0.000000e+00   0.000000e+00     14s
    3090    1.7698565e-03   0.000000e+00   0.000000e+00     15s

Root relaxation: objective 1.769857e-03, 3090 iterations, 5.69 seconds (2.09 work units)
Total elapsed time = 17.12s (DegenMoves)
Total elapsed time = 21.68s (DegenMoves)

    Nodes    |    Current Node    |     Objective Bounds      |     Work
 Expl Unexpl |  Obj  Depth IntInf | Incumbent    BestBd   Gap | It/Node Time

     0     0    0.00177    0  167          -    0.00177      -     -   27s
     0     0    0.00177    0  167          -    0.00177      -     -   27s
     0     0    0.00177    0  166          -    0.00177      -     -   28s
     0     0    0.00177    0  166          -    0.00177      -     -   28s
     0     0    0.00177    0  166          -    0.00177      -     -   29s
     0     0    0.00177    0  166          -    0.00177      -     -   30s
     0     0    0.00177    0  166          -    0.00177      -     -   30s
     0     0    0.00177    0  166          -    0.00177      -     -   31s
     0     0    0.00177    0  166          -    0.00177      -     -   31s
     0     0    0.00177    0  166          -    0.00177      -     -   32s
     0     0    0.00177    0  167          -    0.00177      -     -   32s
H    0     0                       5.0000667    0.00177   100%     -   40s
     0     0    0.00189    0  600    5.00007    0.00189   100%     -   45s
     0     0    0.00189    0  589    5.00007    0.00189   100%     -   45s
     0     0    0.00334    0  537    5.00007    0.00334   100%     -   46s
     0     0    0.10506    0  527    5.00007    0.10506  97.9%     -   46s
H    0     0                       4.9174220    0.10506  97.9%     -   50s
H    0     0                       3.8020345    0.10506  97.2%     -   53s
H    0     0                       3.3270083    0.10506  96.8%     -   53s
     0     0    0.10506    0  528    3.32701    0.10506  96.8%     -   54s
     0     0    0.10507    0  696    3.32701    0.10507  96.8%     -   60s
H    0     0                       3.1204720    0.10507  96.6%     -   65s
H    0     0                       2.9139451    0.10507  96.4%     -   65s
     0     0    0.10507    0  627    2.91395    0.10507  96.4%     -   66s
     0     0    0.10507    0  918    2.91395    0.10507  96.4%     -   73s
H    0     0                       2.3769952    0.10507  95.6%     -   78s
H    0     0                       1.7779343    0.10507  94.1%     -   79s
H    0     0                       1.7779291    0.10507  94.1%     -   79s
     0     0    0.10507    0  833    1.77793    0.10507  94.1%     -   81s
     0     0    0.10507    0  841    1.77793    0.10507  94.1%     -   88s
H    0     0                       1.7779158    0.10507  94.1%     -   91s
H    0     0                       1.6746158    0.10507  93.7%     -   91s
     0     0    0.10507    0  647    1.67462    0.10507  93.7%     -   93s
     0     0    0.10508    0  878    1.67462    0.10508  93.7%     -   97s
H    0     0                       1.4061730    0.10508  92.5%     -  104s
     0     0    0.10508    0  625    1.40617    0.10508  92.5%     -  105s
     0     0    0.10508    0  831    1.40617    0.10508  92.5%     -  111s
     0     0    0.10508    0  691    1.40617    0.10508  92.5%     -  121s
H    0     0                       1.3649559    0.10509  92.3%     -  128s
H    0     0                       1.3442200    0.10509  92.2%     -  128s
     0     2    0.10509    0  686    1.34422    0.10509  92.2%     -  135s
     1     4    0.29097    1  783    1.34422    0.10510  92.2%  1607  141s
     3     8    0.43565    2  694    1.34422    0.10510  92.2%   942  151s
     7    13    0.51795    3  546    1.34422    0.10510  92.2%   849  168s
    13    19    0.55924    4  550    1.34422    0.10510  92.2%   819  189s
    24    26    0.55953    6  488    1.34422    0.10510  92.2%   646  204s
H   36    36                       1.2822745    0.10510  91.8%   473  217s
H   36    36                       1.2409473    0.10510  91.5%   473  217s
H   41    36                       0.8280710    0.10510  87.3%   417  217s
H   41    36                       0.5389402    0.10510  80.5%   417  217s
    57    42     cutoff   11         0.53894    0.10510  80.5%   346  227s
    73    47    0.10541    5  641    0.53894    0.10510  80.5%   306  232s
H   79    52                       0.4976499    0.10510  78.9%   305  241s
    89    57    0.10541    7  611    0.49765    0.10510  78.9%   289  246s
   101    65    0.10541    7  545    0.49765    0.10510  78.9%   261  253s
H  116    70                       0.4357804    0.10510  75.9%   246  261s
H  122    70                       0.4357761    0.10510  75.9%   238  261s
   125    74    0.10542   10  604    0.43578    0.10510  75.9%   237  267s
   140    82    0.10541   10  440    0.43578    0.10510  75.9%   221  272s
   152    88    0.10541   11  540    0.43578    0.10510  75.9%   210  279s
H  155    88                       0.4357682    0.10510  75.9%   212  279s
   159    93    0.10541   12  515    0.43577    0.10510  75.9%   212  283s
H  170   100                       0.4357657    0.10510  75.9%   203  289s
   184   108    0.10546   14  384    0.43577    0.10510  75.9%   199  298s
H  186   108                       0.1673528    0.10510  37.2%   198  298s
   193    92    0.10541   14  472    0.16735    0.10510  37.2%   202  309s
   225    96    0.10541   15  478    0.16735    0.10510  37.2%   189  318s
H  227    96                       0.1673521    0.10510  37.2%   188  318s
   232   105    0.10541   16  477    0.16735    0.10510  37.2%   191  329s
   249   113    0.10541   17  554    0.16735    0.10510  37.2%   186  338s
H  261   119                       0.1673323    0.10510  37.2%   185  348s
H  266   119                       0.1673218    0.10510  37.2%   184  348s
   274   131    0.10541   19  482    0.16732    0.10510  37.2%   182  360s
   291   142    0.10541   20  397    0.16732    0.10510  37.2%   181  372s
H  307   154                       0.1673204    0.10510  37.2%   178  388s
H  307   154                       0.1673176    0.10510  37.2%   178  388s
H  310   154                       0.1673152    0.10510  37.2%   184  388s
H  310   154                       0.1466536    0.10510  28.3%   184  388s
   327   171    0.10541   23  448    0.14665    0.10510  28.3%   176  405s
H  353   191                       0.1466534    0.10510  28.3%   174  434s
H  357   191                       0.1465971    0.10510  28.3%   177  434s
H  360   191                       0.1259688    0.10510  16.6%   176  434s
   385   211    0.10544   31  335    0.12597    0.10510  16.6%   170  456s
   422   245    0.10544   34  334    0.12597    0.10510  16.6%   166  484s
H  432   245                       0.1259220    0.10510  16.5%   164  484s
H  432   245                       0.1053334    0.10510  0.23%   164  484s
H  446   245                       0.1053164    0.10510  0.21%   163  485s
   468   213     cutoff   43         0.10532    0.10510  0.21%   161  527s
   569   226    0.10515    9  396    0.10532    0.10510  0.21%   144  545s
   593   236    0.10515   10  313    0.10532    0.10510  0.21%   141  565s
H  632   248                       0.1053157    0.10510  0.21%   134  588s
   666   270    0.10516   14  294    0.10532    0.10510  0.21%   131  609s
   702   294    0.10521   19  419    0.10532    0.10510  0.21%   131  632s
   739   319    0.10520   24  317    0.10532    0.10510  0.21%   129  650s
   790   340    0.10521   31  239    0.10532    0.10510  0.21%   127  671s
H  830   356                       0.1053062    0.10510  0.20%   124  692s
   875   359    0.10524   41  335    0.10531    0.10510  0.20%   120  712s
   914   354    0.10524   47  296    0.10531    0.10510  0.20%   118  740s
   948   353 infeasible   52         0.10531    0.10510  0.20%   116  780s
   973   348    0.10528   53  254    0.10531    0.10510  0.20%   115  846s
   999   342    0.10528   54  252    0.10531    0.10510  0.20%   114  878s
  1023   362    0.10529   56  224    0.10531    0.10510  0.20%   113  901s
H 1040   362                       0.1052944    0.10510  0.19%   112  902s
  1078   377    0.10527   64  161    0.10529    0.10510  0.19%   110  919s
  1125   399    0.10527   74  142    0.10529    0.10510  0.19%   107  943s
  1207   434    0.10528   91  139    0.10529    0.10510  0.19%   103  971s
  1272   477    0.10510   43  621    0.10529    0.10510  0.19%   102 1002s
  1338   504    0.10511   54  773    0.10529    0.10510  0.19%  99.2 1037s
  1412   544    0.10512   68  669    0.10529    0.10510  0.19%  97.1 1064s
  1483   568    0.10516   79  350    0.10529    0.10510  0.19%  95.3 1095s
  1567   610    0.10520   90  326    0.10529    0.10510  0.19%  94.4 1124s
  1647   648    0.10520  107  332    0.10529    0.10510  0.19%  92.9 1169s
  1712   707    0.10522  117  288    0.10529    0.10510  0.19%  91.0 1201s
  1783   740    0.10521  136  259    0.10529    0.10510  0.19%  90.5 1238s
  1886   741    0.10510   54  691    0.10529    0.10510  0.19%  88.1 1270s
  1888   742    0.10512   57  234    0.10529    0.10510  0.19%  88.0 1314s
  1889   743    0.10514   63  357    0.10529    0.10510  0.19%  88.0 1388s
  1890   744    0.10521  106  574    0.10529    0.10510  0.19%  87.9 1401s
  1891   744    0.10522  124  489    0.10529    0.10510  0.19%  87.9 1456s
  1892   745    0.10512   58  783    0.10529    0.10510  0.19%  87.8 1479s
  1893   746    0.10528   61  556    0.10529    0.10510  0.19%  87.8 1566s
  1894   746    0.10526  107  766    0.10529    0.10510  0.18%  87.7 1594s
  1895   747    0.10516  130 1092    0.10529    0.10512  0.17%  87.7 1687s
  1896   748    0.10529   98  897    0.10529    0.10512  0.17%  87.6 1716s
  1897   748    0.10524   65  662    0.10529    0.10512  0.17%  87.6 1772s
  1898   749    0.10522   63 1058    0.10529    0.10512  0.17%  87.5 1806s
  1899   750    0.10516   80  401    0.10529    0.10512  0.17%  87.5 1877s
  1900   750    0.10517   63 1128    0.10529    0.10512  0.17%  87.4 1931s
  1901   751    0.10519   91 1036    0.10529    0.10512  0.17%  87.4 2002s
  1902   752    0.10516  135  810    0.10529    0.10513  0.16%  87.4 2039s
  1903   752    0.10515   44 1248    0.10529    0.10513  0.16%  87.3 2130s
  1904   753    0.10524   28 1084    0.10529    0.10514  0.15%  87.3 2160s
  1905   754    0.10514   96 1219    0.10529    0.10514  0.15%  87.2 2239s
  1906   754    0.10515   39 1378    0.10529    0.10514  0.15%  87.2 2275s
  1907   755    0.10517   66 1111    0.10529    0.10514  0.15%  87.1 2360s
  1908   756    0.10517   69 2024    0.10529    0.10514  0.15%  87.1 2435s
  1909   756    0.10518   74 1575    0.10529    0.10515  0.13%  87.0 2546s
  1910   757    0.10516  142 1367    0.10529    0.10516  0.13%  87.0 2576s
  1911   758    0.10526   81 1264    0.10529    0.10516  0.13%  86.9 2673s
  1912   758    0.10522   11 1714    0.10529    0.10516  0.13%  86.9 2728s
  1913   759    0.10521  106 1394    0.10529    0.10517  0.12%  86.9 2818s
  1914   760    0.10526   81 2221    0.10529    0.10517  0.12%  86.8 2884s
  1915   760    0.10522   64  826    0.10529    0.10518  0.11%  86.8 2947s
  1916   761    0.10521  114 1354    0.10529    0.10518  0.11%  86.7 2979s
  1917   762    0.10518   28 1083    0.10529    0.10518  0.11%  86.7 3052s
  1918   762    0.10526   61 1376    0.10529    0.10519  0.10%  86.6 3095s
  1919   763    0.10520  111  976    0.10529    0.10520  0.09%  86.6 3200s
  1920   764    0.10528  182 1763    0.10529    0.10520  0.09%  86.5 3287s
  1921   764    0.10521   53 1236    0.10529    0.10521  0.08%  86.5 3380s
  1922   765    0.10525   52 2561    0.10529    0.10522  0.07%  86.4 3492s
  1923   766    0.10523   94 2035    0.10529    0.10523  0.06%  86.4 3638s
  1924   766    0.10524   53 2218    0.10529    0.10524  0.05%  86.4 3728s
  1925   767    0.10525   72 1655    0.10529    0.10525  0.05%  86.3 3825s
  1926   768    0.10525  114 1864    0.10529    0.10525  0.04%  86.3 3859s
  1927   768    0.10525   28 1673    0.10529    0.10525  0.04%  86.2 4008s
  1928   769    0.10527  133 1721    0.10529    0.10525  0.04%  86.2 4133s
  1929   770    0.10525   33 1996    0.10529    0.10525  0.04%  86.1 4290s
  1930   770    0.10525   30 1778    0.10529    0.10525  0.04%  86.1 4345s
  1931   771    0.10529   79 2440    0.10529    0.10525  0.04%  86.0 4573s
  1932   772    0.10526   35 1606    0.10529    0.10526  0.03%  86.0 4648s
  1933   772    0.10526   37 1358    0.10529    0.10526  0.03%  86.0 4741s
  1934   773    0.10526   80 2089    0.10529    0.10526  0.03%  85.9 4817s
  1935   774    0.10527   52 2710    0.10529    0.10526  0.03%  85.9 4922s
  1936   774    0.10526   98 1931    0.10529    0.10526  0.03%  85.8 4983s
  1937   775    0.10529   75 1660    0.10529    0.10526  0.03%  85.8 5112s
  1938   776    0.10527  163 1522    0.10529    0.10526  0.03%  85.7 5170s
  1939   776    0.10527   66 2493    0.10529    0.10527  0.02%  85.7 5347s

Cutting planes:
  Gomory: 1506
  Lift-and-project: 126
  Cover: 122
  Implied bound: 1849
  Projected implied bound: 18
  Clique: 1487
  MIR: 463
  Mixing: 12
  StrongCG: 99
  Flow cover: 3284
  GUB cover: 18
  Inf proof: 9
  Zero half: 414
  RLT: 35
  Relax-and-lift: 708

Explored 1939 nodes (607106 simplex iterations) in 5362.40 seconds (3454.64 work units)
Thread count was 12 (of 12 available processors)

Solution count 10: 0.105294 0.105306 0.105316 ... 0.146654

Optimal solution found (tolerance 1.00e-04)
Best objective 1.052944116445e-01, best bound 1.052884827325e-01, gap 0.0056%
Objective Function at this solution: [[0, 1, 11], [1, 2, 11], [2, 3, 11], [2, 5, 7], [3, 143, 11], [4, 138, 11], [5, 197, 7], [6, 7, 3], [6, 7, 16], [7, 46, 7], [7, 46, 16], [7, 71, 3], [7, 152, 11], [8, 64, 16], [9, 19, 16], [10, 9, 16], [11, 10, 16], [12, 18, 16], [13, 12, 16], [14, 15, 12], [15, 65, 12], [16, 17, 16], [17, 13, 16], [18, 11, 16], [19, 8, 16], [20, 165, 11], [20, 165, 13], [21, 22, 11], [22, 69, 11], [23, 0, 11], [24, 25, 7], [24, 37, 11], [25, 205, 7], [26, 20, 11], [26, 20, 13], [27, 28, 9], [28, 30, 9], [28, 30, 20], [29, 30, 3], [30, 31, 3], [30, 31, 9], [30, 31, 20], [31, 32, 20], [31, 72, 3], [31, 72, 9], [32, 33, 20], [33, 34, 3], [33, 34, 9], [33, 34, 20], [34, 35, 3], [34, 35, 9], [34, 35, 20], [35, 36, 3], [35, 36, 9], [35, 36, 20], [36, 73, 5], [37, 4, 11], [38, 223, 17], [39, 27, 9], [39, 40, 20], [39, 216, 19], [40, 28, 20], [41, 29, 3], [42, 41, 3], [43, 42, 3], [43, 44, 7], [44, 45, 7], [45, 7, 7], [46, 47, 7], [46, 85, 16], [47, 48, 7], [48, 49, 7], [49, 50, 7], [50, 51, 16], [50, 74, 7], [51, 52, 16], [52, 53, 16], [53, 54, 16], [54, 55, 16], [55, 56, 16], [56, 57, 16], [56, 57, 23], [57, 58, 16], [57, 58, 23], [58, 59, 16], [58, 176, 23], [59, 60, 16], [59, 67, 12], [60, 59, 12], [60, 61, 16], [61, 62, 16], [62, 66, 12], [62, 169, 16], [63, 62, 12], [65, 63, 12], [66, 60, 12], [67, 68, 12], [67, 68, 18], [69, 70, 11], [70, 7, 11], [71, 43, 3], [72, 33, 3], [72, 33, 9], [74, 50, 16], [74, 75, 7], [75, 74, 16], [75, 76, 7], [76, 77, 7], [76, 83, 8], [76, 83, 16], [77, 78, 7], [78, 79, 7], [79, 80, 7], [80, 81, 7], [82, 91, 8], [83, 84, 16], [83, 90, 8], [84, 75, 16], [85, 86, 16], [86, 87, 16], [87, 88, 16], [88, 89, 16], [89, 76, 16], [90, 82, 8], [91, 92, 8], [91, 111, 23], [93, 94, 25], [94, 91, 23], [94, 93, 25], [95, 96, 1], [96, 97, 1], [97, 98, 1], [98, 99, 1], [99, 100, 1], [100, 101, 1], [101, 102, 1], [102, 103, 1], [103, 104, 1], [104, 105, 1], [105, 106, 1], [106, 107, 1], [107, 108, 1], [108, 109, 1], [109, 110, 8], [110, 111, 8], [111, 118, 8], [111, 118, 23], [112, 39, 9], [113, 76, 8], [114, 113, 8], [115, 114, 8], [116, 119, 8], [116, 119, 23], [117, 116, 8], [117, 116, 23], [118, 117, 8], [118, 117, 23], [119, 115, 8], [119, 214, 23], [120, 121, 7], [121, 122, 7], [122, 123, 7], [123, 124, 7], [124, 125, 7], [125, 126, 7], [126, 127, 7], [127, 128, 7], [128, 129, 7], [129, 130, 7], [130, 131, 7], [131, 132, 7], [132, 133, 7], [133, 134, 7], [134, 135, 7], [135, 136, 7], [136, 137, 7], [137, 24, 7], [138, 139, 11], [139, 120, 2], [139, 120, 10], [139, 120, 14], [139, 120, 15], [139, 120, 21], [139, 120, 22], [139, 120, 24], [140, 144, 7], [140, 201, 11], [141, 142, 11], [141, 146, 7], [142, 141, 7], [142, 200, 11], [143, 2, 7], [143, 196, 11], [144, 140, 11], [144, 200, 7], [145, 195, 7], [145, 199, 11], [146, 147, 7], [146, 148, 11], [147, 146, 11], [147, 199, 7], [148, 141, 11], [149, 206, 7], [150, 151, 11], [151, 23, 11], [152, 153, 11], [153, 150, 11], [154, 155, 13], [155, 156, 13], [156, 157, 13], [157, 158, 13], [158, 159, 13], [159, 160, 13], [160, 161, 13], [161, 162, 13], [162, 163, 13], [163, 26, 11], [163, 26, 13], [164, 39, 19], [165, 21, 11], [165, 154, 13], [166, 39, 20], [167, 209, 12], [168, 14, 12], [169, 170, 16], [170, 171, 16], [171, 172, 16], [172, 173, 16], [173, 174, 16], [174, 16, 16], [175, 167, 12], [176, 177, 23], [176, 194, 18], [177, 178, 23], [178, 179, 23], [179, 180, 23], [179, 193, 18], [180, 179, 18], [180, 181, 23], [181, 180, 18], [181, 182, 23], [182, 181, 18], [182, 183, 4], [183, 184, 4], [184, 185, 4], [185, 186, 4], [186, 187, 4], [187, 188, 4], [188, 189, 6], [189, 190, 6], [190, 191, 6], [191, 192, 6], [192, 182, 6], [193, 176, 18], [194, 67, 18], [195, 196, 7], [195, 198, 11], [196, 143, 7], [196, 195, 11], [197, 149, 7], [198, 145, 11], [199, 145, 7], [199, 147, 11], [200, 142, 7], [200, 144, 11], [201, 140, 7], [201, 202, 11], [202, 201, 7], [202, 203, 11], [203, 202, 7], [203, 204, 11], [204, 24, 11], [205, 203, 7], [206, 43, 7], [207, 36, 19], [208, 207, 19], [209, 210, 12], [210, 211, 12], [211, 212, 12], [212, 168, 12], [213, 215, 23], [214, 213, 23], [215, 56, 23], [216, 217, 19], [217, 218, 19], [218, 219, 19], [219, 220, 19], [220, 221, 19], [221, 222, 19], [222, 208, 19], [223, 224, 17], [224, 225, 17], [225, 226, 17], [226, 227, 17], [227, 228, 17], [228, 229, 17], [229, 230, 17], [230, 236, 17], [236, 237, 17], [237, 238, 17], [238, 239, 17], [239, 240, 17], [240, 241, 17]]
List of All Routes is {'Route_1': [95, 96, 97, 98, 99, 100, 101, 102, 103, 104, 105, 106, 107, 108, 109], 'Route_1_1': [109, 108, 107, 106, 105, 104, 103, 102, 101, 100, 99, 98, 97, 96, 95], 'Route_2': [139, 120], 'Route_2_1': [120, 139], 'Route_3': [6, 7, 71, 43, 42, 41, 29, 30, 31, 72, 33, 34, 35, 36], 'Route_3_1': [36, 35, 34, 33, 72, 31, 30, 29, 41, 42, 43, 71, 7, 6], 'Route_4': [182, 183, 184, 185, 186, 187, 188], 'Route_4_1': [188, 187, 186, 185, 184, 183, 182], 'Route_5': [36, 73], 'Route_5_1': [73, 36], 'Route_6': [188, 189, 190, 191, 192, 182], 'Route_6_1': [182, 192, 191, 190, 189, 188], 'Route_7': [120, 121, 122, 123, 124, 125, 126, 127, 128, 129, 130, 131, 132, 133, 134, 135, 136, 137, 24, 25, 205, 203, 202, 201, 140, 144, 200, 142, 141, 146, 147, 199, 145, 195, 196, 143, 2, 5, 197, 149, 206, 43, 44, 45, 7, 46, 47, 48, 49, 50, 74, 75, 76, 77, 78, 79, 80, 81], 'Route_7_1': [81, 80, 79, 78, 77, 76, 75, 74, 50, 49, 48, 47, 46, 7, 45, 44, 43, 206, 149, 197, 5, 2, 143, 196, 195, 145, 199, 147, 146, 141, 142, 200, 144, 140, 201, 202, 203, 205, 25, 24, 137, 136, 135, 134, 133, 132, 131, 130, 129, 128, 127, 126, 125, 124, 123, 122, 121, 120], 'Route_8': [109, 110, 111, 118, 117, 116, 119, 115, 114, 113, 76, 83, 90, 82, 91, 92], 'Route_8_1': [92, 91, 82, 90, 83, 76, 113, 114, 115, 119, 116, 117, 118, 111, 110, 109], 'Route_9': [112, 39, 27, 28, 30, 31, 72, 33, 34, 35, 36], 'Route_9_1': [36, 35, 34, 33, 72, 31, 30, 28, 27, 39, 112], 'Route_10': [139, 120], 'Route_10_1': [120, 139], 'Route_11': [163, 26, 20, 165, 21, 22, 69, 70, 7, 152, 153, 150, 151, 23, 0, 1, 2, 3, 143, 196, 195, 198, 145, 199, 147, 146, 148, 141, 142, 200, 144, 140, 201, 202, 203, 204, 24, 37, 4, 138, 139], 'Route_11_1': [139, 138, 4, 37, 24, 204, 203, 202, 201, 140, 144, 200, 142, 141, 148, 146, 147, 199, 145, 198, 195, 196, 143, 3, 2, 1, 0, 23, 151, 150, 153, 152, 7, 70, 69, 22, 21, 165, 20, 26, 163], 'Route_12': [175, 167, 209, 210, 211, 212, 168, 14, 15, 65, 63, 62, 66, 60, 59, 67, 68], 'Route_12_1': [68, 67, 59, 60, 66, 62, 63, 65, 15, 14, 168, 212, 211, 210, 209, 167, 175], 'Route_13': [163, 26, 20, 165, 154, 155, 156, 157, 158, 159, 160, 161, 162, 163], 'Route_14': [139, 120], 'Route_14_1': [120, 139], 'Route_15': [139, 120], 'Route_15_1': [120, 139], 'Route_16': [6, 7, 46, 85, 86, 87, 88, 89, 76, 83, 84, 75, 74, 50, 51, 52, 53, 54, 55, 56, 57, 58, 59, 60, 61, 62, 169, 170, 171, 172, 173, 174, 16, 17, 13, 12, 18, 11, 10, 9, 19, 8, 64], 'Route_16_1': [64, 8, 19, 9, 10, 11, 18, 12, 13, 17, 16, 174, 173, 172, 171, 170, 169, 62, 61, 60, 59, 58, 57, 56, 55, 54, 53, 52, 51, 50, 74, 75, 84, 83, 76, 89, 88, 87, 86, 85, 46, 7, 6], 'Route_17': [38, 223, 224, 225, 226, 227, 228, 229, 230, 236, 237, 238, 239, 240, 241], 'Route_17_1': [241, 240, 239, 238, 237, 236, 230, 229, 228, 227, 226, 225, 224, 223, 38], 'Route_18': [182, 181, 180, 179, 193, 176, 194, 67, 68], 'Route_18_1': [68, 67, 194, 176, 193, 179, 180, 181, 182], 'Route_19': [164, 39, 216, 217, 218, 219, 220, 221, 222, 208, 207, 36], 'Route_19_1': [36, 207, 208, 222, 221, 220, 219, 218, 217, 216, 39, 164], 'Route_20': [166, 39, 40, 28, 30, 31, 32, 33, 34, 35, 36], 'Route_20_1': [36, 35, 34, 33, 32, 31, 30, 28, 40, 39, 166], 'Route_21': [139, 120], 'Route_21_1': [120, 139], 'Route_22': [139, 120], 'Route_22_1': [120, 139], 'Route_23': [94, 91, 111, 118, 117, 116, 119, 214, 213, 215, 56, 57, 58, 176, 177, 178, 179, 180, 181, 182], 'Route_23_1': [182, 181, 180, 179, 178, 177, 176, 58, 57, 56, 215, 213, 214, 119, 116, 117, 118, 111, 91, 94], 'Route_24': [139, 120], 'Route_24_1': [120, 139], 'Route_25': [94, 93, 94]}
